200
1000
240
239
239
238
238
238
238
238
238
237
237
236
236
236
236
234
234
234
233
233
233
233
233
232
230
230
230
229
229
229
229
228
228
227
227
227
225
225
224
224
223
223
223
222
222
222
222
221
221
221
220
220
219
219
219
217
217
217
217
217
217
217
216
215
214
214
214
213
213
213
213
213
213
213
212
212
212
211
211
211
211
210
208
208
207
207
207
206
206
205
205
202
202
202
202
202
201
200
199
199
199
199
198
198
198
198
197
197
196
196
196
195
195
194
194
194
194
194
193
193
193
192
192
191
191
191
190
189
189
188
188
188
188
187
185
184
183
183
183
182
182
182
181
181
181
180
180
179
179
179
177
177
177
177
176
175
175
175
175
175
174
173
172
172
172
172
171
171
171
171
170
170
169
169
169
169
169
169
169
168
168
168
168
167
167
167
166
166
165
165
164
164
164
164
163
163
162
162
162
162
